120
fulvene
C 1.2000 0.0000 0.0000
C 0.3708 1.1413 0.0000
C -0.9708 0.7053 0.0000
C -0.9708 -0.7053 0.0000
C 0.3708 -1.1413 0.0000
C 2.5500 0.0000 0.0000
H 3.1000 0.9300 0.0000
H 3.1000 -0.9300 0.0000
H 0.7046 2.1684 0.0000
H -1.8446 1.3402 0.0000
H -1.8446 -1.3402 0.0000
H 0.7046 -2.1684 0.0000
C 1.2000 6.0000 0.0000
C 0.3708 7.1413 0.0000
C -0.9708 6.7053 0.0000
C -0.9708 5.2947 0.0000
C 0.3708 4.8587 0.0000
C 2.5500 6.0000 0.0000
H 3.1000 6.9300 0.0000
H 3.1000 5.0700 0.0000
H 0.7046 8.1684 0.0000
H -1.8446 7.3402 0.0000
H -1.8446 4.6598 0.0000
H 0.7046 3.8316 0.0000
C 7.2000 0.0000 0.0000
C 6.3708 1.1413 0.0000
C 5.0292 0.7053 0.0000
C 5.0292 -0.7053 0.0000
C 6.3708 -1.1413 0.0000
C 8.5500 0.0000 0.0000
H 9.1000 0.9300 0.0000
H 9.1000 -0.9300 0.0000
H 6.7046 2.1684 0.0000
H 4.1554 1.3402 0.0000
H 4.1554 -1.3402 0.0000
H 6.7046 -2.1684 0.0000
C 7.2000 6.0000 0.0000
C 6.3708 7.1413 0.0000
C 5.0292 6.7053 0.0000
C 5.0292 5.2947 0.0000
C 6.3708 4.8587 0.0000
C 8.5500 6.0000 0.0000
H 9.1000 6.9300 0.0000
H 9.1000 5.0700 0.0000
H 6.7046 8.1684 0.0000
H 4.1554 7.3402 0.0000
H 4.1554 4.6598 0.0000
H 6.7046 3.8316 0.0000
C 13.2000 0.0000 0.0000
C 12.3708 1.1413 0.0000
C 11.0292 0.7053 0.0000
C 11.0292 -0.7053 0.0000
C 12.3708 -1.1413 0.0000
C 14.5500 0.0000 0.0000
H 15.1000 0.9300 0.0000
H 15.1000 -0.9300 0.0000
H 12.7046 2.1684 0.0000
H 10.1554 1.3402 0.0000
H 10.1554 -1.3402 0.0000
H 12.7046 -2.1684 0.0000
C 13.2000 6.0000 0.0000
C 12.3708 7.1413 0.0000
C 11.0292 6.7053 0.0000
C 11.0292 5.2947 0.0000
C 12.3708 4.8587 0.0000
C 14.5500 6.0000 0.0000
H 15.1000 6.9300 0.0000
H 15.1000 5.0700 0.0000
H 12.7046 8.1684 0.0000
H 10.1554 7.3402 0.0000
H 10.1554 4.6598 0.0000
H 12.7046 3.8316 0.0000
C 19.2000 0.0000 0.0000
C 18.3708 1.1413 0.0000
C 17.0292 0.7053 0.0000
C 17.0292 -0.7053 0.0000
C 18.3708 -1.1413 0.0000
C 20.5500 0.0000 0.0000
H 21.1000 0.9300 0.0000
H 21.1000 -0.9300 0.0000
H 18.7046 2.1684 0.0000
H 16.1554 1.3402 0.0000
H 16.1554 -1.3402 0.0000
H 18.7046 -2.1684 0.0000
C 19.2000 6.0000 0.0000
C 18.3708 7.1413 0.0000
C 17.0292 6.7053 0.0000
C 17.0292 5.2947 0.0000
C 18.3708 4.8587 0.0000
C 20.5500 6.0000 0.0000
H 21.1000 6.9300 0.0000
H 21.1000 5.0700 0.0000
H 18.7046 8.1684 0.0000
H 16.1554 7.3402 0.0000
H 16.1554 4.6598 0.0000
H 18.7046 3.8316 0.0000
C 25.2000 0.0000 0.0000
C 24.3708 1.1413 0.0000
C 23.0292 0.7053 0.0000
C 23.0292 -0.7053 0.0000
C 24.3708 -1.1413 0.0000
C 26.5500 0.0000 0.0000
H 27.1000 0.9300 0.0000
H 27.1000 -0.9300 0.0000
H 24.7046 2.1684 0.0000
H 22.1554 1.3402 0.0000
H 22.1554 -1.3402 0.0000
H 24.7046 -2.1684 0.0000
C 25.2000 6.0000 0.0000
C 24.3708 7.1413 0.0000
C 23.0292 6.7053 0.0000
C 23.0292 5.2947 0.0000
C 24.3708 4.8587 0.0000
C 26.5500 6.0000 0.0000
H 27.1000 6.9300 0.0000
H 27.1000 5.0700 0.0000
H 24.7046 8.1684 0.0000
H 22.1554 7.3402 0.0000
H 22.1554 4.6598 0.0000
H 24.7046 3.8316 0.0000
